(set-info :source |printed by MathSAT|)
(declare-fun call_moesi.ite4 () Int)
(declare-fun call_moesi.ite32 () Int)
(declare-fun call_moesi.ite11 () Int)
(declare-fun call_Sofar.Sofar () Bool)
(declare-fun call_moesi.flby3 () Int)
(declare-fun call_moesi.ite2 () Int)
(declare-fun call_moesi.ite21 () Int)
(declare-fun call_moesi.ite19 () Int)
(declare-fun modified_mo () Int)
(declare-fun call_moesi.ite26 () Int)
(declare-fun call_moesi.ite33 () Int)
(declare-fun call_moesi.flby6 () Int)
(declare-fun call_moesi.ite9 () Int)
(declare-fun call_moesi.ite5 () Int)
(declare-fun call_moesi.ite6 () Int)
(declare-fun call_moesi.ite24 () Int)
(declare-fun call_moesi.garde_mo3 () Bool)
(declare-fun call_moesi.ite28 () Int)
(declare-fun shared_mo () Int)
(declare-fun owned_mo () Int)
(declare-fun call_moesi.ite () Int)
(declare-fun call_Sofar.flby () Bool)
(declare-fun erreur_mo () Bool)
(declare-fun call_moesi.ite31 () Int)
(declare-fun call_moesi.modified_mo () Int)
(declare-fun call_moesi.flby () Bool)
(declare-fun call_moesi.ite3 () Int)
(declare-fun call_moesi.shared_mo () Int)
(declare-fun param_etat_mo1 () Bool)
(declare-fun call_moesi.flby5 () Int)
(declare-fun call_moesi.garde_mo1 () Bool)
(declare-fun call_moesi.ite17 () Int)
(declare-fun call_moesi.ite27 () Int)
(declare-fun call_moesi.ite20 () Int)
(declare-fun call_moesi.garde_mo4 () Bool)
(declare-fun call_moesi.flby2 () Int)
(declare-fun param_etat_mo2 () Bool)
(declare-fun call_moesi.ite10 () Int)
(declare-fun call_moesi.ite15 () Int)
(declare-fun exclusive_mo () Int)
(declare-fun call_moesi.owned_mo () Int)
(declare-fun call_moesi.flby4 () Int)
(declare-fun param_etat_mo4 () Bool)
(declare-fun _OK_ () Bool)
(declare-fun call_moesi.ite8 () Int)
(declare-fun call_moesi.ite22 () Int)
(declare-fun call_excludes4.excludes () Bool)
(declare-fun call_moesi.ite13 () Int)
(declare-fun param_etat_mo3 () Bool)
(declare-fun call_moesi.ite30 () Int)
(declare-fun call_moesi.ite7 () Int)
(declare-fun param_init_invalid_mo () Int)
(declare-fun call_moesi.ite25 () Int)
(declare-fun call_moesi.ite18 () Int)
(declare-fun call_moesi.ite29 () Int)
(declare-fun invalid_mo () Int)
(declare-fun call_moesi.ite23 () Int)
(declare-fun call_moesi.ite12 () Int)
(declare-fun call_moesi.ite16 () Int)
(declare-fun call_moesi.ite14 () Int)
(declare-fun call_moesi.exclusive_mo () Int)
(declare-fun call_moesi.ite34 () Int)
(declare-fun call_moesi.invalid_mo () Int)
(declare-fun call_moesi.erreur_mo () Bool)
(define-fun .def_902 () Bool (= call_Sofar.flby call_Sofar.Sofar))
(define-fun .def_897 () Bool (and param_etat_mo4 param_etat_mo3))
(define-fun .def_895 () Bool (and param_etat_mo4 param_etat_mo2))
(define-fun .def_893 () Bool (and param_etat_mo2 param_etat_mo3))
(define-fun .def_891 () Bool (and param_etat_mo4 param_etat_mo1))
(define-fun .def_889 () Bool (and param_etat_mo1 param_etat_mo3))
(define-fun .def_888 () Bool (and param_etat_mo2 param_etat_mo1))
(define-fun .def_890 () Bool (or .def_888 .def_889))
(define-fun .def_892 () Bool (or .def_890 .def_891))
(define-fun .def_894 () Bool (or .def_892 .def_893))
(define-fun .def_896 () Bool (or .def_894 .def_895))
(define-fun .def_898 () Bool (or .def_896 .def_897))
(define-fun .def_899 () Bool (not .def_898))
(define-fun .def_900 () Bool (= call_excludes4.excludes .def_899))
(define-fun .def_886 () Bool (= call_moesi.flby call_moesi.erreur_mo))
(define-fun .def_884 () Bool (= call_moesi.flby6 call_moesi.owned_mo))
(define-fun .def_882 () Bool (= call_moesi.flby5 call_moesi.invalid_mo))
(define-fun .def_880 () Bool (= call_moesi.flby4 call_moesi.shared_mo))
(define-fun .def_878 () Bool (= call_moesi.flby3 call_moesi.exclusive_mo))
(define-fun .def_876 () Bool (= call_moesi.flby2 call_moesi.modified_mo))
(define-fun .def_874 () Bool (= erreur_mo call_moesi.erreur_mo))
(define-fun .def_871 () Bool (= owned_mo call_moesi.owned_mo))
(define-fun .def_867 () Bool (= invalid_mo call_moesi.invalid_mo))
(define-fun .def_863 () Bool (= shared_mo call_moesi.shared_mo))
(define-fun .def_859 () Bool (= exclusive_mo call_moesi.exclusive_mo))
(define-fun .def_855 () Bool (= modified_mo call_moesi.modified_mo))
(define-fun .def_849 () Bool (not erreur_mo))
(define-fun .def_847 () Bool (not call_Sofar.Sofar))
(define-fun .def_850 () Bool (or .def_847 .def_849))
(define-fun .def_851 () Bool (= _OK_ .def_850))
(define-fun .def_841 () Bool (= call_moesi.ite32 call_moesi.ite33))
(define-fun .def_842 () Bool (or param_etat_mo3 .def_841))
(define-fun .def_838 () Bool (= call_moesi.ite30 call_moesi.ite33))
(define-fun .def_816 () Bool (not param_etat_mo3))
(define-fun .def_839 () Bool (or .def_816 .def_838))
(define-fun .def_835 () Bool (= call_moesi.ite26 call_moesi.ite27))
(define-fun .def_836 () Bool (or param_etat_mo3 .def_835))
(define-fun .def_832 () Bool (= call_moesi.ite27 call_moesi.ite24))
(define-fun .def_833 () Bool (or .def_816 .def_832))
(define-fun .def_828 () Bool (= call_moesi.ite20 call_moesi.ite21))
(define-fun .def_829 () Bool (or param_etat_mo3 .def_828))
(define-fun .def_825 () Bool (= call_moesi.ite18 call_moesi.ite21))
(define-fun .def_826 () Bool (or .def_816 .def_825))
(define-fun .def_822 () Bool (= call_moesi.ite13 call_moesi.ite14))
(define-fun .def_823 () Bool (or param_etat_mo3 .def_822))
(define-fun .def_819 () Bool (= call_moesi.ite11 call_moesi.ite14))
(define-fun .def_820 () Bool (or .def_816 .def_819))
(define-fun .def_815 () Bool (= call_moesi.ite3 call_moesi.ite6))
(define-fun .def_817 () Bool (or .def_815 .def_816))
(define-fun .def_812 () Bool (= call_moesi.ite5 call_moesi.ite6))
(define-fun .def_814 () Bool (or .def_812 param_etat_mo3))
(define-fun .def_818 () Bool (and .def_814 .def_817))
(define-fun .def_821 () Bool (and .def_818 .def_820))
(define-fun .def_824 () Bool (and .def_821 .def_823))
(define-fun .def_827 () Bool (and .def_824 .def_826))
(define-fun .def_830 () Bool (and .def_827 .def_829))
(define-fun .def_834 () Bool (and .def_830 .def_833))
(define-fun .def_837 () Bool (and .def_834 .def_836))
(define-fun .def_840 () Bool (and .def_837 .def_839))
(define-fun .def_843 () Bool (and .def_840 .def_842))
(define-fun .def_808 () Bool (= call_moesi.ite34 call_moesi.ite33))
(define-fun .def_809 () Bool (or param_etat_mo1 .def_808))
(define-fun .def_804 () Bool (= call_moesi.ite29 call_moesi.ite34))
(define-fun .def_774 () Bool (not param_etat_mo1))
(define-fun .def_805 () Bool (or .def_774 .def_804))
(define-fun .def_799 () Bool (= call_moesi.ite28 call_moesi.ite27))
(define-fun .def_800 () Bool (or param_etat_mo1 .def_799))
(define-fun .def_795 () Bool (= call_moesi.ite23 call_moesi.ite28))
(define-fun .def_796 () Bool (or .def_774 .def_795))
(define-fun .def_790 () Bool (= call_moesi.ite22 call_moesi.ite21))
(define-fun .def_791 () Bool (or param_etat_mo1 .def_790))
(define-fun .def_786 () Bool (= call_moesi.ite17 call_moesi.ite22))
(define-fun .def_787 () Bool (or .def_774 .def_786))
(define-fun .def_781 () Bool (= call_moesi.ite15 call_moesi.ite16))
(define-fun .def_782 () Bool (or param_etat_mo1 .def_781))
(define-fun .def_778 () Bool (= call_moesi.ite9 call_moesi.ite16))
(define-fun .def_779 () Bool (or .def_774 .def_778))
(define-fun .def_773 () Bool (= call_moesi.ite call_moesi.ite8))
(define-fun .def_775 () Bool (or .def_773 .def_774))
(define-fun .def_770 () Bool (= call_moesi.ite7 call_moesi.ite8))
(define-fun .def_772 () Bool (or .def_770 param_etat_mo1))
(define-fun .def_776 () Bool (and .def_772 .def_775))
(define-fun .def_780 () Bool (and .def_776 .def_779))
(define-fun .def_783 () Bool (and .def_780 .def_782))
(define-fun .def_788 () Bool (and .def_783 .def_787))
(define-fun .def_792 () Bool (and .def_788 .def_791))
(define-fun .def_797 () Bool (and .def_792 .def_796))
(define-fun .def_801 () Bool (and .def_797 .def_800))
(define-fun .def_806 () Bool (and .def_801 .def_805))
(define-fun .def_810 () Bool (and .def_806 .def_809))
(define-fun .def_766 () Bool (= call_moesi.ite15 call_moesi.ite14))
(define-fun .def_767 () Bool (or param_etat_mo2 .def_766))
(define-fun .def_762 () Bool (= call_moesi.ite10 call_moesi.ite15))
(define-fun .def_757 () Bool (not param_etat_mo2))
(define-fun .def_763 () Bool (or .def_757 .def_762))
(define-fun .def_756 () Bool (= call_moesi.ite7 call_moesi.ite2))
(define-fun .def_758 () Bool (or .def_756 .def_757))
(define-fun .def_752 () Bool (= call_moesi.ite7 call_moesi.ite6))
(define-fun .def_754 () Bool (or .def_752 param_etat_mo2))
(define-fun .def_759 () Bool (and .def_754 .def_758))
(define-fun .def_764 () Bool (and .def_759 .def_763))
(define-fun .def_768 () Bool (and .def_764 .def_767))
(define-fun .def_811 () Bool (and .def_768 .def_810))
(define-fun .def_844 () Bool (and .def_811 .def_843))
(define-fun .def_852 () Bool (and .def_844 .def_851))
(define-fun .def_856 () Bool (and .def_852 .def_855))
(define-fun .def_860 () Bool (and .def_856 .def_859))
(define-fun .def_864 () Bool (and .def_860 .def_863))
(define-fun .def_868 () Bool (and .def_864 .def_867))
(define-fun .def_872 () Bool (and .def_868 .def_871))
(define-fun .def_875 () Bool (and .def_872 .def_874))
(define-fun .def_877 () Bool (and .def_875 .def_876))
(define-fun .def_879 () Bool (and .def_877 .def_878))
(define-fun .def_881 () Bool (and .def_879 .def_880))
(define-fun .def_883 () Bool (and .def_881 .def_882))
(define-fun .def_885 () Bool (and .def_883 .def_884))
(define-fun .def_887 () Bool (and .def_885 .def_886))
(define-fun .def_901 () Bool (and .def_887 .def_900))
(define-fun .def_903 () Bool (and .def_901 .def_902))
(define-fun .def_743 () Bool (<= param_init_invalid_mo 0))
(define-fun .def_744 () Bool (not .def_743))
(define-fun .def_746 () Bool (and .def_744 call_excludes4.excludes))
(define-fun .def_748 () Bool (= .def_746 call_Sofar.flby))
(define-fun .def_741 () Bool (= call_moesi.flby6 0))
(define-fun .def_738 () Bool (= param_init_invalid_mo call_moesi.flby5))
(define-fun .def_734 () Bool (= call_moesi.flby4 0))
(define-fun .def_731 () Bool (= call_moesi.flby3 0))
(define-fun .def_728 () Bool (= call_moesi.flby2 0))
(define-fun .def_725 () Bool (not call_moesi.flby))
(define-fun .def_720 () Bool (= call_moesi.ite31 0))
(define-fun .def_712 () Bool (not call_moesi.garde_mo4))
(define-fun .def_721 () Bool (or .def_712 .def_720))
(define-fun .def_717 () Bool (= call_moesi.ite19 0))
(define-fun .def_718 () Bool (or .def_712 .def_717))
(define-fun .def_714 () Bool (= call_moesi.ite4 0))
(define-fun .def_715 () Bool (or .def_712 .def_714))
(define-fun .def_710 () Bool (= call_moesi.ite12 1))
(define-fun .def_713 () Bool (or .def_710 .def_712))
(define-fun .def_716 () Bool (and .def_713 .def_715))
(define-fun .def_719 () Bool (and .def_716 .def_718))
(define-fun .def_722 () Bool (and .def_719 .def_721))
(define-fun .def_706 () Bool (= call_moesi.ite30 0))
(define-fun .def_695 () Bool (not call_moesi.garde_mo3))
(define-fun .def_707 () Bool (or .def_695 .def_706))
(define-fun .def_702 () Bool (= call_moesi.ite18 0))
(define-fun .def_703 () Bool (or .def_695 .def_702))
(define-fun .def_698 () Bool (= call_moesi.ite3 0))
(define-fun .def_699 () Bool (or .def_695 .def_698))
(define-fun .def_693 () Bool (= call_moesi.ite11 1))
(define-fun .def_696 () Bool (or .def_693 .def_695))
(define-fun .def_700 () Bool (and .def_696 .def_699))
(define-fun .def_704 () Bool (and .def_700 .def_703))
(define-fun .def_708 () Bool (and .def_704 .def_707))
(define-fun .def_688 () Bool (= call_moesi.ite 0))
(define-fun .def_685 () Bool (not call_moesi.garde_mo1))
(define-fun .def_689 () Bool (or .def_685 .def_688))
(define-fun .def_683 () Bool (= call_moesi.ite9 0))
(define-fun .def_686 () Bool (or .def_683 .def_685))
(define-fun .def_690 () Bool (and .def_686 .def_689))
(define-fun .def_679 () Bool (= call_moesi.ite31 call_moesi.ite32))
(define-fun .def_660 () Bool (not param_etat_mo4))
(define-fun .def_680 () Bool (or .def_660 .def_679))
(define-fun .def_674 () Bool (= call_moesi.ite25 call_moesi.ite26))
(define-fun .def_675 () Bool (or .def_660 .def_674))
(define-fun .def_669 () Bool (= call_moesi.ite19 call_moesi.ite20))
(define-fun .def_670 () Bool (or .def_660 .def_669))
(define-fun .def_664 () Bool (= call_moesi.ite4 call_moesi.ite5))
(define-fun .def_665 () Bool (or .def_660 .def_664))
(define-fun .def_658 () Bool (= call_moesi.ite12 call_moesi.ite13))
(define-fun .def_661 () Bool (or .def_658 .def_660))
(define-fun .def_666 () Bool (and .def_661 .def_665))
(define-fun .def_671 () Bool (and .def_666 .def_670))
(define-fun .def_676 () Bool (and .def_671 .def_675))
(define-fun .def_681 () Bool (and .def_676 .def_680))
(define-fun .def_691 () Bool (and .def_681 .def_690))
(define-fun .def_709 () Bool (and .def_691 .def_708))
(define-fun .def_723 () Bool (and .def_709 .def_722))
(define-fun .def_726 () Bool (and .def_723 .def_725))
(define-fun .def_729 () Bool (and .def_726 .def_728))
(define-fun .def_732 () Bool (and .def_729 .def_731))
(define-fun .def_735 () Bool (and .def_732 .def_734))
(define-fun .def_739 () Bool (and .def_735 .def_738))
(define-fun .def_742 () Bool (and .def_739 .def_741))
(define-fun .def_749 () Bool (and .def_742 .def_748))
(define-fun .def_904 () Bool (and .def_749 .def_903))
(assert .def_904)
